results/res_prop_muc/res_Cimatti_mathsat_cores/QF_LRA/windowreal-safe-2.smt.smt2.res
unsat
( c102
  c111
  c117
  c122
  c126
  c133
  c136
  c151
  c158
  c175
  c185
  c21
  c24
  c384
  c388
  c4
  c421
  c422
  c436
  c445
  c456
  c465
  c476
  c492
  c493
  c5
  c501
  c502
  c517
  c521
  c526
  c527
  c66
  c680
  c707
  c708
  c82
  c91 )
